p edge 20 82 5
v 4 3 5 9 17
v 3 7 11 14
v 5 2 6 8 12 19
v 3 1 16 20
v 5 4 10 13 15 18
e 1 2
e 1 3
e 1 4
e 1 5
e 1 6
e 1 7
e 1 8
e 1 10
e 1 14
e 1 15
e 1 20
e 2 6
e 2 7
e 2 8
e 2 9
e 2 13
e 2 14
e 2 15
e 2 17
e 2 18
e 2 19
e 3 4
e 3 6
e 3 7
e 3 18
e 3 20
e 4 5
e 4 6
e 4 7
e 4 9
e 4 11
e 4 14
e 4 15
e 4 17
e 5 7
e 5 8
e 5 13
e 5 15
e 5 16
e 5 18
e 5 20
e 6 11
e 6 16
e 7 8
e 7 17
e 7 20
e 8 9
e 8 11
e 8 13
e 8 14
e 8 16
e 8 19
e 9 10
e 9 13
e 9 15
e 9 18
e 9 20
e 10 11
e 10 12
e 11 13
e 11 20
e 12 17
e 12 19
e 12 20
e 13 15
e 13 17
e 13 18
e 14 16
e 14 17
e 14 18
e 14 19
e 15 16
e 15 17
e 15 18
e 15 19
e 16 18
e 16 20
e 17 19
e 17 20
e 18 19
e 18 20
e 19 20
